246 5
10 10 10 10 10 

0 0 0 0 0 0 3 2 14 26 
0 0 0 0 0 0 1 3 
6 0 0 0 1 0 3 9 6 4 
1 0 0 0 3 0 1 5 
9 0 0 0 3 0 2 11 7 
9 0 0 0 2 0 2 11 10 
7 0 0 0 3 0 2 8 54 
10 0 0 0 2 0 1 10 
4 0 0 0 5 0 1 10 
1 0 0 0 2 0 1 12 
7 0 0 0 1 0 1 12 
8 0 0 0 3 0 1 13 
0 0 0 0 0 0 1 38 
0 0 0 0 0 0 1 15 
10 0 1 0 0 0 2 17 16 
5 0 1 0 0 0 2 21 18 
5 0 2 0 0 0 2 21 19 
8 0 3 0 0 0 2 19 146 
4 0 3 0 0 0 1 20 
9 0 5 0 0 0 2 24 22 
10 0 2 0 0 0 2 24 22 
7 0 2 0 0 0 1 23 
10 0 2 0 0 0 1 25 
9 0 4 0 0 0 1 25 
0 0 0 0 0 0 1 38 
0 0 0 0 0 0 3 27 33 35 
9 1 0 0 0 0 2 31 28 
8 6 0 0 0 0 1 29 
5 1 0 0 0 0 1 30 
10 4 0 0 0 0 1 32 
6 1 0 0 0 0 1 32 
4 2 0 0 0 0 1 34 
8 1 0 0 0 0 1 34 
9 2 0 0 0 0 1 36 
10 3 0 0 0 0 2 36 181 
6 4 0 0 0 0 1 37 
0 0 0 0 0 0 1 38 
0 0 0 0 0 0 5 39 51 63 75 87 
0 0 0 0 0 0 2 40 203 
4 0 0 0 0 1 2 42 41 
10 0 0 0 0 2 1 43 
6 0 0 0 0 3 1 43 
1 0 0 0 0 3 1 44 
6 0 0 0 0 2 2 46 45 
7 0 0 0 0 2 2 48 47 
6 0 0 0 0 4 2 48 47 
2 0 0 0 0 2 1 49 
3 0 0 0 0 4 1 49 
1 0 0 0 0 2 1 50 
0 0 0 0 0 0 1 99 
0 0 0 0 0 0 1 52 
10 0 0 0 1 0 1 53 
8 0 0 0 3 0 2 56 54 
1 0 0 0 1 0 1 55 
3 0 0 0 4 0 2 59 57 
1 0 0 0 1 0 3 59 57 76 
2 0 0 0 2 0 1 58 
1 0 0 0 3 0 2 61 60 
5 0 0 0 7 0 1 60 
4 0 0 0 2 0 1 62 
8 0 0 0 1 0 1 62 
0 0 0 0 0 0 1 99 
0 0 0 0 0 0 1 64 
4 1 0 0 0 0 2 66 65 
7 2 0 0 0 0 2 70 67 
2 3 0 0 0 0 2 70 69 
6 3 0 0 0 0 1 68 
6 3 0 0 0 0 1 69 
5 2 0 0 0 0 2 73 71 
10 5 0 0 0 0 2 73 71 
7 2 0 0 0 0 1 72 
8 1 0 0 0 0 2 74 168 
2 3 0 0 0 0 1 74 
0 0 0 0 0 0 1 99 
0 0 0 0 0 0 2 76 78 
2 0 1 0 0 0 1 77 
10 0 3 0 0 0 1 79 
9 0 4 0 0 0 2 85 81 
3 0 3 0 0 0 1 80 
8 0 2 0 0 0 2 85 82 
2 0 2 0 0 0 1 82 
7 0 2 0 0 0 1 83 
8 0 4 0 0 0 2 84 187 
3 0 1 0 0 0 1 86 
7 0 3 0 0 0 1 86 
0 0 0 0 0 0 1 99 
0 0 0 0 0 0 3 88 92 94 
1 0 0 0 0 1 1 89 
2 0 0 0 0 3 2 90 198 
8 0 0 0 0 2 1 91 
9 0 0 0 0 5 2 97 93 
4 0 0 0 0 2 2 97 96 
5 0 0 0 0 3 1 95 
1 0 0 0 0 1 1 95 
2 0 0 0 0 2 1 96 
6 0 0 0 0 2 1 98 
7 0 0 0 0 4 1 98 
0 0 0 0 0 0 1 99 
0 0 0 0 0 0 5 100 112 124 136 148 
0 0 0 0 0 0 3 101 107 108 
8 0 0 0 1 0 2 110 102 
5 0 0 0 2 0 1 103 
6 0 0 0 1 0 1 104 
5 0 0 0 3 0 1 105 
5 0 0 0 5 0 1 106 
2 0 0 0 4 0 1 109 
7 0 0 0 2 0 1 109 
5 0 0 0 3 0 1 109 
8 0 0 0 2 0 2 111 170 
9 0 0 0 2 0 1 111 
0 0 0 0 0 0 1 160 
0 0 0 0 0 0 1 113 
6 1 0 0 0 0 2 119 114 
9 4 0 0 0 0 2 118 115 
2 2 0 0 0 0 1 116 
8 4 0 0 0 0 2 122 117 
2 2 0 0 0 0 1 120 
10 1 0 0 0 0 1 120 
6 3 0 0 0 0 1 120 
3 2 0 0 0 0 1 121 
5 3 0 0 0 0 1 123 
9 3 0 0 0 0 1 123 
0 0 0 0 0 0 1 160 
0 0 0 0 0 0 2 125 128 
3 0 1 0 0 0 1 126 
9 0 3 0 0 0 1 127 
6 0 1 0 0 0 1 129 
2 0 2 0 0 0 1 129 
10 0 5 0 0 0 3 134 133 130 
7 0 1 0 0 0 1 131 
6 0 3 0 0 0 1 132 
10 0 3 0 0 0 1 135 
6 0 2 0 0 0 1 135 
2 0 4 0 0 0 1 135 
0 0 0 0 0 0 1 160 
0 0 0 0 0 0 2 137 138 
9 0 0 0 1 0 1 139 
1 0 0 0 2 0 1 139 
2 0 0 0 3 0 1 140 
2 0 0 0 2 0 2 142 141 
10 0 0 0 2 0 1 143 
2 0 0 0 5 0 1 143 
8 0 0 0 1 0 1 144 
2 0 0 0 1 0 2 146 145 
3 0 0 0 3 0 1 147 
1 0 0 0 5 0 1 147 
0 0 0 0 0 0 1 160 
0 0 0 0 0 0 2 149 153 
3 1 0 0 0 0 2 158 150 
6 3 0 0 0 0 2 157 151 
1 3 0 0 0 0 1 152 
3 5 0 0 0 0 1 154 
2 2 0 0 0 0 1 154 
9 2 0 0 0 0 1 155 
7 2 0 0 0 0 1 156 
9 3 0 0 0 0 1 159 
2 2 0 0 0 0 1 159 
10 2 0 0 0 0 1 159 
0 0 0 0 0 0 1 160 
0 0 0 0 0 0 5 161 173 185 197 209 
0 0 0 0 0 0 2 162 168 
2 0 0 0 0 1 3 171 166 163 
1 0 0 0 0 4 1 164 
10 0 0 0 0 2 1 165 
4 0 0 0 0 5 1 167 
1 0 0 0 0 2 1 167 
1 0 0 0 0 1 1 169 
5 0 0 0 0 3 1 169 
5 0 0 0 0 2 1 170 
9 0 0 0 0 2 1 172 
7 0 0 0 0 3 1 172 
0 0 0 0 0 0 1 221 
0 0 0 0 0 0 2 174 175 
10 0 1 0 0 0 2 177 176 
8 0 3 0 0 0 2 177 176 
6 0 2 0 0 0 2 182 178 
3 0 4 0 0 0 2 182 178 
4 0 2 0 0 0 1 179 
10 0 3 0 0 0 1 180 
3 0 5 0 0 0 1 181 
9 0 2 0 0 0 1 183 
1 0 1 0 0 0 1 183 
10 0 2 0 0 0 1 184 
0 0 0 0 0 0 1 221 
0 0 0 0 0 0 1 186 
9 0 1 0 0 0 1 187 
5 0 2 0 0 0 2 191 188 
7 0 2 0 0 0 2 190 189 
3 0 4 0 0 0 2 193 192 
1 0 2 0 0 0 2 193 192 
4 0 3 0 0 0 1 192 
3 0 1 0 0 0 1 194 
6 0 4 0 0 0 1 194 
5 0 3 0 0 0 1 195 
1 0 3 0 0 0 1 196 
0 0 0 0 0 0 1 221 
0 0 0 0 0 0 2 198 207 
6 0 0 1 0 0 1 199 
3 0 0 4 0 0 2 206 200 
4 0 0 2 0 0 1 201 
5 0 0 3 0 0 1 202 
3 0 0 2 0 0 2 205 203 
6 0 0 1 0 0 1 204 
10 0 0 4 0 0 1 208 
6 0 0 1 0 0 1 208 
6 0 0 4 0 0 1 208 
6 0 0 3 0 0 1 208 
0 0 0 0 0 0 1 221 
0 0 0 0 0 0 2 210 212 
9 0 1 0 0 0 1 211 
8 0 3 0 0 0 2 219 213 
7 0 3 0 0 0 1 213 
2 0 2 0 0 0 1 214 
9 0 2 0 0 0 1 215 
6 0 3 0 0 0 2 218 216 
2 0 1 0 0 0 1 217 
5 0 3 0 0 0 1 220 
4 0 4 0 0 0 1 220 
2 0 3 0 0 0 1 220 
0 0 0 0 0 0 1 221 
0 0 0 0 0 0 2 222 234 
0 0 0 0 0 0 1 223 
4 0 0 0 0 1 1 224 
2 0 0 0 0 4 2 227 225 
7 0 0 0 0 4 2 229 226 
5 0 0 0 0 2 2 232 228 
9 0 0 0 0 2 1 228 
6 0 0 0 0 3 1 230 
9 0 0 0 0 3 1 230 
3 0 0 0 0 2 1 231 
8 0 0 0 0 2 1 233 
10 0 0 0 0 2 1 233 
0 0 0 0 0 0 1 246 
0 0 0 0 0 0 1 235 
1 0 1 0 0 0 1 236 
2 0 2 0 0 0 1 237 
5 0 4 0 0 0 2 240 238 
10 0 3 0 0 0 2 242 239 
8 0 1 0 0 0 2 243 241 
1 0 4 0 0 0 2 243 241 
3 0 3 0 0 0 1 244 
7 0 2 0 0 0 1 243 
2 0 3 0 0 0 1 245 
2 0 2 0 0 0 1 245 
0 0 0 0 0 0 1 246 
0 0 0 0 0 0 0 
